*SENSE:Minimize
NAME          LP_Problem
ROWS
 N  Objective
 E  Constraint_1
 E  Constraint_2
 E  Constraint_3
 E  Constraint_4
 E  Constraint_5
 E  Constraint_6
 E  Constraint_7
 E  Constraint_8
 E  Constraint_9
 E  Constraint_10
COLUMNS
    x1        Constraint_1   1.900000000000e+01
    x1        Constraint_2   1.800000000000e+01
    x1        Constraint_3   1.500000000000e+01
    x1        Constraint_4   1.400000000000e+01
    x1        Constraint_5   1.600000000000e+01
    x1        Constraint_6   1.500000000000e+01
    x1        Constraint_7   1.100000000000e+01
    x1        Constraint_8   1.200000000000e+01
    x1        Constraint_9   1.000000000000e+01
    x1        Constraint_10   1.700000000000e+01
    x1        Objective  -6.000000000000e+00
    x10       Constraint_1   1.000000000000e+01
    x10       Constraint_2   1.500000000000e+01
    x10       Constraint_3   1.400000000000e+01
    x10       Constraint_4   1.700000000000e+01
    x10       Constraint_5   1.900000000000e+01
    x10       Constraint_6   1.600000000000e+01
    x10       Constraint_7   1.700000000000e+01
    x10       Constraint_8   1.700000000000e+01
    x10       Constraint_9   1.600000000000e+01
    x10       Constraint_10   1.500000000000e+01
    x10       Objective  -4.000000000000e+00
    x11       Constraint_1   1.700000000000e+01
    x11       Constraint_2   1.000000000000e+01
    x11       Constraint_3   1.700000000000e+01
    x11       Constraint_4   1.800000000000e+01
    x11       Constraint_5   1.200000000000e+01
    x11       Constraint_6   1.900000000000e+01
    x11       Constraint_7   1.700000000000e+01
    x11       Constraint_8   1.600000000000e+01
    x11       Constraint_9   1.600000000000e+01
    x11       Constraint_10   1.600000000000e+01
    x11       Objective  -5.000000000000e+00
    x12       Constraint_1   1.500000000000e+01
    x12       Constraint_2   1.200000000000e+01
    x12       Constraint_3   1.500000000000e+01
    x12       Constraint_4   1.500000000000e+01
    x12       Constraint_5   1.000000000000e+01
    x12       Constraint_6   1.700000000000e+01
    x12       Constraint_7   1.300000000000e+01
    x12       Constraint_8   1.300000000000e+01
    x12       Constraint_9   1.500000000000e+01
    x12       Constraint_10   1.000000000000e+01
    x12       Objective  -5.000000000000e+00
    x13       Constraint_1   1.100000000000e+01
    x13       Constraint_2   1.900000000000e+01
    x13       Constraint_3   1.900000000000e+01
    x13       Constraint_4   1.500000000000e+01
    x13       Constraint_5   1.300000000000e+01
    x13       Constraint_6   1.000000000000e+01
    x13       Constraint_7   1.500000000000e+01
    x13       Constraint_8   1.100000000000e+01
    x13       Constraint_9   1.800000000000e+01
    x13       Constraint_10   1.700000000000e+01
    x13       Objective  -4.000000000000e+00
    x14       Constraint_1   1.900000000000e+01
    x14       Constraint_2   1.600000000000e+01
    x14       Constraint_3   1.500000000000e+01
    x14       Constraint_4   1.200000000000e+01
    x14       Constraint_5   1.300000000000e+01
    x14       Constraint_6   1.900000000000e+01
    x14       Constraint_7   1.200000000000e+01
    x14       Constraint_8   1.000000000000e+01
    x14       Constraint_9   1.200000000000e+01
    x14       Constraint_10   1.900000000000e+01
    x14       Objective  -6.000000000000e+00
    x15       Constraint_1   1.000000000000e+01
    x15       Constraint_2   1.000000000000e+01
    x15       Constraint_3   1.200000000000e+01
    x15       Constraint_4   1.200000000000e+01
    x15       Constraint_5   1.500000000000e+01
    x15       Constraint_6   1.900000000000e+01
    x15       Constraint_7   1.200000000000e+01
    x15       Constraint_8   1.500000000000e+01
    x15       Constraint_9   1.700000000000e+01
    x15       Constraint_10   1.000000000000e+01
    x15       Objective  -6.000000000000e+00
    x16       Constraint_1   1.600000000000e+01
    x16       Constraint_2   1.600000000000e+01
    x16       Constraint_3   1.300000000000e+01
    x16       Constraint_4   1.200000000000e+01
    x16       Constraint_5   1.900000000000e+01
    x16       Constraint_6   1.600000000000e+01
    x16       Constraint_7   1.900000000000e+01
    x16       Constraint_8   1.000000000000e+01
    x16       Constraint_9   1.100000000000e+01
    x16       Constraint_10   1.400000000000e+01
    x16       Objective  -5.000000000000e+00
    x17       Constraint_1   1.100000000000e+01
    x17       Constraint_2   1.400000000000e+01
    x17       Constraint_3   1.200000000000e+01
    x17       Constraint_4   1.000000000000e+01
    x17       Constraint_5   1.000000000000e+01
    x17       Constraint_6   1.600000000000e+01
    x17       Constraint_7   1.400000000000e+01
    x17       Constraint_8   1.500000000000e+01
    x17       Constraint_9   1.200000000000e+01
    x17       Constraint_10   1.900000000000e+01
    x17       Objective  -4.000000000000e+00
    x18       Constraint_1   1.200000000000e+01
    x18       Constraint_2   1.900000000000e+01
    x18       Constraint_3   1.600000000000e+01
    x18       Constraint_4   1.600000000000e+01
    x18       Constraint_5   1.400000000000e+01
    x18       Constraint_6   1.300000000000e+01
    x18       Constraint_7   1.800000000000e+01
    x18       Constraint_8   1.600000000000e+01
    x18       Constraint_9   1.000000000000e+01
    x18       Constraint_10   1.300000000000e+01
    x18       Objective  -5.000000000000e+00
    x19       Constraint_1   1.500000000000e+01
    x19       Constraint_2   1.800000000000e+01
    x19       Constraint_3   1.100000000000e+01
    x19       Constraint_4   1.900000000000e+01
    x19       Constraint_5   1.100000000000e+01
    x19       Constraint_6   1.700000000000e+01
    x19       Constraint_7   1.200000000000e+01
    x19       Constraint_8   1.800000000000e+01
    x19       Constraint_9   1.500000000000e+01
    x19       Constraint_10   1.600000000000e+01
    x19       Objective  -6.000000000000e+00
    x2        Constraint_1   1.100000000000e+01
    x2        Constraint_2   1.100000000000e+01
    x2        Constraint_3   1.300000000000e+01
    x2        Constraint_4   1.600000000000e+01
    x2        Constraint_5   1.500000000000e+01
    x2        Constraint_6   1.500000000000e+01
    x2        Constraint_7   1.500000000000e+01
    x2        Constraint_8   1.800000000000e+01
    x2        Constraint_9   1.600000000000e+01
    x2        Constraint_10   1.300000000000e+01
    x2        Objective  -6.000000000000e+00
    x20       Constraint_1   1.600000000000e+01
    x20       Constraint_2   1.300000000000e+01
    x20       Constraint_3   1.500000000000e+01
    x20       Constraint_4   1.800000000000e+01
    x20       Constraint_5   1.700000000000e+01
    x20       Constraint_6   1.700000000000e+01
    x20       Constraint_7   1.300000000000e+01
    x20       Constraint_8   1.200000000000e+01
    x20       Constraint_9   1.200000000000e+01
    x20       Constraint_10   1.100000000000e+01
    x20       Objective  -5.000000000000e+00
    x21       Constraint_1   1.000000000000e+00
    x22       Constraint_2   1.000000000000e+00
    x23       Constraint_3   1.000000000000e+00
    x24       Constraint_4   1.000000000000e+00
    x25       Constraint_5   1.000000000000e+00
    x26       Constraint_6   1.000000000000e+00
    x27       Constraint_7   1.000000000000e+00
    x28       Constraint_8   1.000000000000e+00
    x29       Constraint_9   1.000000000000e+00
    x3        Constraint_1   1.300000000000e+01
    x3        Constraint_2   1.300000000000e+01
    x3        Constraint_3   1.200000000000e+01
    x3        Constraint_4   1.400000000000e+01
    x3        Constraint_5   1.500000000000e+01
    x3        Constraint_6   1.900000000000e+01
    x3        Constraint_7   1.900000000000e+01
    x3        Constraint_8   1.400000000000e+01
    x3        Constraint_9   1.200000000000e+01
    x3        Constraint_10   1.600000000000e+01
    x3        Objective  -4.000000000000e+00
    x30       Constraint_10   1.000000000000e+00
    x4        Constraint_1   1.300000000000e+01
    x4        Constraint_2   1.700000000000e+01
    x4        Constraint_3   1.500000000000e+01
    x4        Constraint_4   1.200000000000e+01
    x4        Constraint_5   1.200000000000e+01
    x4        Constraint_6   1.800000000000e+01
    x4        Constraint_7   1.500000000000e+01
    x4        Constraint_8   1.900000000000e+01
    x4        Constraint_9   1.400000000000e+01
    x4        Constraint_10   1.800000000000e+01
    x4        Objective  -6.000000000000e+00
    x5        Constraint_1   1.800000000000e+01
    x5        Constraint_2   1.900000000000e+01
    x5        Constraint_3   1.800000000000e+01
    x5        Constraint_4   1.700000000000e+01
    x5        Constraint_5   1.300000000000e+01
    x5        Constraint_6   1.200000000000e+01
    x5        Constraint_7   1.400000000000e+01
    x5        Constraint_8   1.500000000000e+01
    x5        Constraint_9   1.300000000000e+01
    x5        Constraint_10   1.500000000000e+01
    x5        Objective  -6.000000000000e+00
    x6        Constraint_1   1.600000000000e+01
    x6        Constraint_2   1.600000000000e+01
    x6        Constraint_3   1.100000000000e+01
    x6        Constraint_4   1.600000000000e+01
    x6        Constraint_5   1.300000000000e+01
    x6        Constraint_6   1.600000000000e+01
    x6        Constraint_7   1.000000000000e+01
    x6        Constraint_8   1.600000000000e+01
    x6        Constraint_9   1.500000000000e+01
    x6        Constraint_10   1.500000000000e+01
    x6        Objective  -5.000000000000e+00
    x7        Constraint_1   1.200000000000e+01
    x7        Constraint_2   1.000000000000e+01
    x7        Constraint_3   1.700000000000e+01
    x7        Constraint_4   1.700000000000e+01
    x7        Constraint_5   1.000000000000e+01
    x7        Constraint_6   1.200000000000e+01
    x7        Constraint_7   1.000000000000e+01
    x7        Constraint_8   1.600000000000e+01
    x7        Constraint_9   1.400000000000e+01
    x7        Constraint_10   1.700000000000e+01
    x7        Objective  -5.000000000000e+00
    x8        Constraint_1   1.400000000000e+01
    x8        Constraint_2   1.500000000000e+01
    x8        Constraint_3   1.300000000000e+01
    x8        Constraint_4   1.200000000000e+01
    x8        Constraint_5   1.000000000000e+01
    x8        Constraint_6   1.900000000000e+01
    x8        Constraint_7   1.100000000000e+01
    x8        Constraint_8   1.000000000000e+01
    x8        Constraint_9   1.500000000000e+01
    x8        Constraint_10   1.000000000000e+01
    x8        Objective  -5.000000000000e+00
    x9        Constraint_1   1.800000000000e+01
    x9        Constraint_2   1.300000000000e+01
    x9        Constraint_3   1.000000000000e+01
    x9        Constraint_4   1.800000000000e+01
    x9        Constraint_5   1.800000000000e+01
    x9        Constraint_6   1.900000000000e+01
    x9        Constraint_7   1.800000000000e+01
    x9        Constraint_8   1.100000000000e+01
    x9        Constraint_9   1.300000000000e+01
    x9        Constraint_10   1.200000000000e+01
    x9        Objective  -7.000000000000e+00
RHS
    RHS       Constraint_1   6.700000000000e+01
    RHS       Constraint_2   7.000000000000e+01
    RHS       Constraint_3   5.600000000000e+01
    RHS       Constraint_4   5.700000000000e+01
    RHS       Constraint_5   7.900000000000e+01
    RHS       Constraint_6   5.800000000000e+01
    RHS       Constraint_7   5.300000000000e+01
    RHS       Constraint_8   6.100000000000e+01
    RHS       Constraint_9   6.800000000000e+01
    RHS       Constraint_10   6.500000000000e+01
BOUNDS
ENDATA
